JulietBench/Juliet_Based_Patch_Bench/qemu/CWE-189-Numeric-Errors/CVE_2016_2538_fe3c546c5ff2a6210f9a4d8561cc64051ca8603e/cve1/solverrndis_query_response.smt2
; benchmark generated from python API
(set-info :status unknown)
(declare-fun R () (_ BitVec 32))
(declare-fun rsi () (_ BitVec 64))
(declare-fun rdx () (_ BitVec 64))
(declare-fun rdi () (_ BitVec 64))
(assert
 (let (($x1374 (= (_ bv4294967293 32) R)))
 (let ((?x8 ((_ extract 31 0) rsi)))
 (let ((?x10 ((_ extract 31 0) rdx)))
 (let ((?x51 (bvadd ?x10 ?x8)))
 (let ((?x6 ((_ extract 31 0) rdi)))
 (let (($x1112 (bvult ?x6 ?x51)))
 (let (($x1380 (and $x1112 $x1374)))
 (let (($x1364 (= (_ bv0 32) R)))
 (let (($x1336 (bvuge ?x6 ?x51)))
 (let (($x1379 (and $x1336 $x1364)))
 (let (($x1381 (or $x1379 $x1380)))
 (let (($x1384 (not $x1381)))
 (let (($x39 (bvugt ?x10 ?x6)))
 (let (($x1377 (and $x39 $x1374)))
 (let (($x16 (bvule ?x10 ?x6)))
 (let (($x588 (bvuge ?x8 ?x6)))
 (let (($x1376 (and $x588 $x16 $x1374)))
 (let (($x71 (bvult ?x8 ?x6)))
 (let (($x1375 (and $x1112 $x71 $x16 $x1374)))
 (let (($x1359 (and $x1336 $x71 $x16 $x1364)))
 (let (($x1378 (or $x1359 $x1375 $x1376 $x1377)))
 (let (($x1383 (not $x1378)))
 (let (($x1385 (and $x1383 $x1384)))
 (let (($x1382 (and $x1378 $x1381)))
 (let (($x1386 (or $x1382 $x1385)))
 (not $x1386)))))))))))))))))))))))))))
(check-sat)
